results_rootrelaxation/bin018_060_030.srr.sol
solution status: optimal solution found
objective value:                                    0
_var2651_                           0.175544508113428 	(obj:0)
_var2671_                            0.39885123929364 	(obj:0)
_var2683_                           0.123865397167081 	(obj:0)
_var2690_                           0.129680266344726 	(obj:0)
_var2692_                          0.0214661746003639 	(obj:0)
_var2698_                           0.211718655488051 	(obj:0)
_var2702_                           0.192509223695542 	(obj:0)
_var2709_                           0.256641101699586 	(obj:0)
_var2723_                          0.0735858735643343 	(obj:0)
_var2740_                           0.114241562257129 	(obj:0)
_var2741_                           0.261111824874016 	(obj:0)
_var2745_                          0.0990016314444241 	(obj:0)
_var2747_                          0.0446841833488227 	(obj:0)
_var2748_                           0.154885241170033 	(obj:0)
_var2751_                           0.162541063914096 	(obj:0)
_var2757_                         0.00497393101539553 	(obj:0)
_var2760_                            0.20182864343808 	(obj:0)
_var2761_                           0.356373434273176 	(obj:0)
_var2769_                          0.0880499541669758 	(obj:0)
_var2770_                          0.0711810445990517 	(obj:0)
_var2774_                          0.0416153202265885 	(obj:0)
_var2777_                          0.0332368667531557 	(obj:0)
_var2778_                            0.22207485398769 	(obj:0)
_var2780_                           0.366682509408572 	(obj:0)
_var2781_                           0.375906369391884 	(obj:0)
_var2782_                          0.0404486977427003 	(obj:0)
_var2785_                         0.00685327165638014 	(obj:0)
_var2786_                           0.208012472160649 	(obj:0)
_var2788_                          0.0234951968992251 	(obj:0)
_var2791_                           0.100554342027384 	(obj:0)
_var2802_                          0.0107348747888633 	(obj:0)
_var2803_                          0.0310678532256189 	(obj:0)
_var2805_                           0.176050324654239 	(obj:0)
_var2807_                          0.0249277915976066 	(obj:0)
_var2808_                           0.163766159324419 	(obj:0)
_var2809_                           0.241486731816619 	(obj:0)
_var2811_                          0.0988040237800704 	(obj:0)
_var2812_                           0.189708889803601 	(obj:0)
_var2813_                           0.293201017168051 	(obj:0)
_var2818_                           0.273158624138069 	(obj:0)
_var2821_                          0.0251122581546802 	(obj:0)
_var2822_                            0.19743941400455 	(obj:0)
_var2825_                           0.229161317830748 	(obj:0)
_var2836_                          0.0476835538884666 	(obj:0)
_var2837_                           0.416081158447457 	(obj:0)
_var2842_                         0.00759990810081203 	(obj:0)
_var2843_                           0.120853988847838 	(obj:0)
_var2844_                           0.403777350607569 	(obj:0)
_var2855_                           0.112051737778745 	(obj:0)
_var2857_                           0.176751397526243 	(obj:0)
_var2858_                           0.030177533827707 	(obj:0)
_var2859_                          0.0126748502603078 	(obj:0)
_var2866_                            0.24403317866415 	(obj:0)
_var2867_                          0.0562884865591534 	(obj:0)
_var2874_                          0.0474490490502033 	(obj:0)
_var2876_                          0.0314184426464433 	(obj:0)
_var2877_                          0.0748241952374404 	(obj:0)
_var2879_                           0.105773116137556 	(obj:0)
_var2885_                            0.14601883482091 	(obj:0)
_var2886_                           0.117581941574761 	(obj:0)
_var2893_                          0.0888199839520394 	(obj:0)
_var2895_                          0.0623957493463949 	(obj:0)
_var2898_                            0.11070096298648 	(obj:0)
_var2902_                           0.138583602288123 	(obj:0)
_var2907_                          0.0875913940476533 	(obj:0)
_var2908_                           0.220464617120976 	(obj:0)
_var2912_                          0.0168011789104534 	(obj:0)
_var2915_                           0.108593133914151 	(obj:0)
_var2916_                           0.241735951671305 	(obj:0)
_var2918_                          0.0672322604461747 	(obj:0)
_var2919_                           0.262025896145402 	(obj:0)
_var2923_                           0.040951341941172 	(obj:0)
_var2925_                          0.0177608856060427 	(obj:0)
_var2931_                         0.00887290449700434 	(obj:0)
_var2934_                          0.0335091954488517 	(obj:0)
_var2935_                           0.192053951936063 	(obj:0)
_var2938_                           0.140258901389967 	(obj:0)
_var2940_                          0.0937142033408899 	(obj:0)
_var2941_                          0.0694659696090255 	(obj:0)
_var2945_                          0.0464937190843563 	(obj:0)
_var2946_                           0.113666675322663 	(obj:0)
_var2947_                          0.0234884807562871 	(obj:0)
_var2948_                          0.0788158582209101 	(obj:0)
_var2949_                           0.104045450588198 	(obj:0)
_var2950_                          0.0195638028214127 	(obj:0)
_var2951_                          0.0127617380910613 	(obj:0)
_var2952_                          0.0191250779376599 	(obj:0)
_var2955_                           0.184659785246756 	(obj:0)
_var2956_                           0.079317621011543 	(obj:0)
_var2957_                          0.0784718344963102 	(obj:0)
_var2958_                           0.170898241802277 	(obj:0)
_var2960_                           0.337979763855721 	(obj:0)
_var2961_                          0.0768460296680459 	(obj:0)
_var2963_                          0.0779655561447177 	(obj:0)
_var2964_                           0.142695616793478 	(obj:0)
_var2973_                           0.177470940987755 	(obj:0)
_var2974_                          0.0757403916712185 	(obj:0)
_var2975_                         0.00509144456038153 	(obj:0)
_var2976_                           0.288892424076194 	(obj:0)
_var2984_                          0.0414887323170652 	(obj:0)
_var2986_                          0.0888282119266157 	(obj:0)
_var2988_                           0.167157265623266 	(obj:0)
_var2989_                           0.131323888873683 	(obj:0)
_var2991_                          0.0441626167477572 	(obj:0)
_var2992_                          0.0693666562842169 	(obj:0)
_var2993_                           0.103861589929735 	(obj:0)
_var2995_                         0.00961438511938266 	(obj:0)
_var2997_                            0.13756535229652 	(obj:0)
_var3000_                           0.130547174806978 	(obj:0)
_var3005_                           0.165165369202855 	(obj:0)
_var3009_                           0.127508670886603 	(obj:0)
_var3010_                          0.0890449627571189 	(obj:0)
_var3013_                          0.0531682695526955 	(obj:0)
_var3014_                          0.0934420874886159 	(obj:0)
_var3015_                          0.0125469691634464 	(obj:0)
_var3016_                          0.0660899858769312 	(obj:0)
_var3017_                          0.0270502814489596 	(obj:0)
_var3018_                          0.0632659162172079 	(obj:0)
_var3019_                          0.0244258537560237 	(obj:0)
_var3020_                           0.209872361379656 	(obj:0)
_var3021_                           0.178356977645493 	(obj:0)
_var3022_                          0.0673679409500444 	(obj:0)
_var3025_                          0.0145789925528018 	(obj:0)
_var3028_                            0.18540639346343 	(obj:0)
_var3030_                          0.0723810042423087 	(obj:0)
_var3031_                          0.0853381192746268 	(obj:0)
_var3033_                          0.0279092382072725 	(obj:0)
_var3034_                          0.0710406106316623 	(obj:0)
_var3035_                          0.0813099366639314 	(obj:0)
_var3037_                           0.062873948893895 	(obj:0)
_var3038_                          0.0600122257101308 	(obj:0)
_var3039_                          0.0687413415218308 	(obj:0)
_var3040_                          0.0880438428872708 	(obj:0)
_var3042_                          0.0759818469084056 	(obj:0)
_var3044_                          0.0557750739334878 	(obj:0)
_var3045_                          0.0226572779618952 	(obj:0)
_var3046_                          0.0451278940069709 	(obj:0)
_var3050_                           0.050154835133414 	(obj:0)
_var3051_                          0.0558197370110965 	(obj:0)
_var3052_                           0.140621844323483 	(obj:0)
_var3053_                          0.0424062661453428 	(obj:0)
_var3054_                           0.108391762008049 	(obj:0)
_var3056_                          0.0527014461946898 	(obj:0)
_var3057_                          0.0464482505637646 	(obj:0)
_var3060_                          0.0730926872518244 	(obj:0)
_var3065_                          0.0090479306084396 	(obj:0)
_var3066_                           0.103519006877975 	(obj:0)
_var3069_                          0.0453313065770233 	(obj:0)
_var3070_                           0.222273215153863 	(obj:0)
_var3072_                         0.00328380790189131 	(obj:0)
_var3073_                          0.0881260707944843 	(obj:0)
_var3074_                          0.0575871696236724 	(obj:0)
